<number of tasks>
20


<number of equipment>
5


<cycle time>
1000


<investment costs>
1,13498
2,21394
3,9394
4,24295
5,28779


<task times>
1,-1,516,604,-1,373
2,575,-1,531,471,-1
3,-1,538,642,-1,461
4,581,-1,460,426,-1
5,-1,486,628,-1,381
6,-1,499,650,-1,525
7,-1,-1,-1,477,557
8,-1,-1,-1,539,617
9,575,-1,624,489,-1
10,575,-1,679,480,-1
11,-1,479,582,-1,371
12,-1,464,647,-1,424
13,605,-1,638,443,-1
14,-1,478,644,-1,382
15,620,-1,663,465,-1
16,585,-1,585,460,-1
17,531,-1,601,446,-1
18,618,-1,686,498,-1
19,-1,-1,-1,382,368
20,539,-1,621,442,-1


<precedence relations>
1,14
3,9
4,7
4,8
7,14
8,13
9,10
9,11
9,12
10,14
11,14
12,15
12,16
14,17
14,18
14,19
14,20


<task types>
1,2
2,3
3,2
4,3
5,2
6,2
7,1
8,1
9,3
10,3
11,2
12,2
13,3
14,2
15,3
16,3
17,3
18,3
19,1
20,3


<line depot>
1,0
2,0
3,16
4,1
5,1


<processing costs>
1,7200
2,7200
3,14400
4,14400
5,14400


<saving costs>
1,1349
2,2139
3,939
4,2429
5,2877


<end>
